c ren 1 -> 1
c ren 2 -> 2
c ren 3 -> 3
c ren 4 -> 4
c ren 5 -> 5
c ren 6 -> 6
c ren 7 -> 7
c ren 8 -> 8
c ren 9 -> 9
c ren 10 -> 10
c ren 11 -> 11
c ren 12 -> 12
c ren 13 -> 13
c ren 14 -> 14
c ren 15 -> 15
c ren 16 -> 16
c ren 17 -> 17
c ren 18 -> 18
c ren 19 -> 19
c ren 20 -> 20
c ren 21 -> 21
c ren 22 -> 22
c ren 24 -> 23
c ren 25 -> 24
c ren 26 -> 25
c ren 44 -> 26
c ren 48 -> 27
c ren 53 -> 28
c ren 63 -> 29
c ren 72 -> 30
c ren 110 -> 31
p cnf 31 78
a 1 2 3 4 5 6 7 8 9 10 11 12 13 14 15 16 17 18 19 20 21 22 0
d 23 19 20 0
d 24 17 18 0
d 25 21 22 0
e 26 27 28 29 30 31 0
-1 -4 17 18 19 -27 0
1 2 3 4 5 6 -7 24 27 -28 -29 -30 0
-5 7 17 18 19 26 -27 0
-2 -4 17 18 19 -27 0
4 -6 -7 -17 18 -19 -26 -27 0
7 -24 27 -28 -29 -30 0
-1 -6 17 18 19 -27 0
4 -5 -7 -17 18 -19 -26 -27 0
1 2 -4 -7 -17 18 19 -27 0
-6 -24 27 -28 -29 -30 0
-2 -5 17 18 19 -27 0
-5 -24 27 -28 -29 -30 0
-2 -3 17 18 19 -27 0
-2 -26 0
1 2 3 26 0
-3 -26 0
-1 -26 0
4 -6 9 -10 -26 27 -28 -29 -30 -31 0
1 2 -7 -17 18 19 26 -27 0
-4 -23 27 -28 -29 -30 0
-1 -3 17 18 19 -27 0
-23 26 27 -28 -29 -30 0
-5 7 8 31 0
5 6 -8 31 0
4 7 8 9 11 13 15 -16 -26 27 -28 -29 -30 31 0
4 7 8 9 11 -12 -26 27 -28 -29 -30 31 0
-5 20 28 0
4 -5 9 11 13 -14 -26 27 -28 -29 -30 -31 0
4 -6 9 11 13 -14 -26 27 -28 -29 -30 -31 0
8 -23 27 -28 -29 -30 0
-7 -23 27 -28 -29 -30 0
-5 -23 27 -28 -29 -30 0
4 5 6 7 8 9 11 12 13 15 -16 -26 27 -28 -29 -30 0
4 5 6 7 -8 23 -26 27 -28 -29 -30 0
4 -25 -26 27 -28 -29 -30 -31 0
-10 21 29 0
4 -7 9 11 -12 -26 27 -28 -29 -30 -31 0
13 14 15 -16 -22 30 0
-6 7 8 31 0
-12 21 29 0
-14 22 30 0
-11 21 29 0
-13 22 30 0
4 -8 9 11 -12 -26 27 -28 -29 -30 -31 0
-6 20 28 0
-6 -23 27 -28 -29 -30 0
4 -6 9 11 -12 -26 27 -28 -29 -30 -31 0
-1 -24 27 -28 -29 -30 0
-4 -24 27 -28 -29 -30 0
4 -7 9 11 13 -14 -26 27 -28 -29 -30 -31 0
4 -6 7 17 18 -19 -26 -27 0
-3 -24 27 -28 -29 -30 0
-2 -24 27 -28 -29 -30 0
4 -7 9 -10 -26 27 -28 -29 -30 -31 0
4 -8 9 11 13 -14 -26 27 -28 -29 -30 -31 0
-2 -6 17 18 19 -27 0
4 7 8 9 -10 -26 27 -28 -29 -30 31 0
-4 7 17 18 19 -27 0
-3 7 17 18 19 -27 0
-6 7 17 18 19 26 -27 0
5 6 7 8 -31 0
4 5 6 7 17 -18 -19 -26 -27 0
4 -5 7 17 18 -19 -26 -27 0
5 6 -7 31 0
4 -5 9 11 -12 -26 27 -28 -29 -30 -31 0
8 20 28 0
-9 21 29 0
4 -8 9 -10 -26 27 -28 -29 -30 -31 0
-7 20 28 0
4 -5 9 -10 -26 27 -28 -29 -30 -31 0
3 4 5 6 17 -18 19 26 -27 0
4 5 6 -7 -17 -18 -19 -26 -27 0
5 6 7 -8 -20 28 0
-1 -5 17 18 19 -27 0
9 10 11 12 -21 29 0
16 22 30 0
4 7 8 9 11 13 -14 -26 27 -28 -29 -30 31 0
-15 22 30 0
